
Log started (V22.1.1.0) Sat May 31 05:59:11 2025

Version identifier: 22.1.1.0 | 2022-11-28 | 9160aff4d
Tried aggregator 1 time.
MIP Presolve modified 1000 coefficients.
Reduced MIP has 3060 rows, 3000 columns, and 14250 nonzeros.
Reduced MIP has 2950 binaries, 50 generals, 0 SOSs, and 0 indicators.
Presolve time = 0.01 sec. (7.04 ticks)
Probing time = 1.78 sec. (3.77 ticks)
Cover probing fixed 0 vars, tightened 50 bounds.
Tried aggregator 1 time.
Detecting symmetries...
MIP Presolve eliminated 8 rows and 0 columns.
MIP Presolve modified 984 coefficients.
Reduced MIP has 3052 rows, 3000 columns, and 14234 nonzeros.
Reduced MIP has 2950 binaries, 50 generals, 0 SOSs, and 0 indicators.
Presolve time = 0.06 sec. (8.98 ticks)
Probing fixed 0 vars, tightened 37 bounds.
Probing time = 0.04 sec. (11.18 ticks)
Cover probing fixed 0 vars, tightened 19 bounds.
Clique table members: 1254.
MIP emphasis: balance optimality and feasibility.
MIP search method: dynamic search.
Parallel mode: deterministic, using up to 4 threads.
Root relaxation solution time = 0.08 sec. (12.73 ticks)

        Nodes                                         Cuts/
   Node  Left     Objective  IInf  Best Integer    Best Bound    ItCnt     Gap

      0     0      206.0000   105                    206.0000      217         
      0     0      206.0000    87                   Cuts: 412      430         
      0     0      206.0000    48                   Cuts: 584      642         
      0     0      206.0000    30                   Cuts: 467      833         
      0     0      206.0000    50                   Cuts: 483     1002         
*     0+    0                         4074.0000      206.0000            94.94%
      0     0      206.0000    37     4074.0000     Cuts: 424     1205   94.94%
Detecting symmetries...
      0     0      206.0000    38     4074.0000     Cuts: 437     1370   94.94%
*     0+    0                         2953.0000      206.0000            93.02%
*     0+    0                         2841.0000      206.0000            92.75%
*     0+    0                         2730.0000      206.0000            92.45%
*     0+    0                         2676.0000      206.0000            92.30%
      0     0  -1.00000e+75     0     2676.0000      206.0000     1370   92.30%
*     0+    0                          447.0000      206.0000            53.91%
Detecting symmetries...
      0     2      208.0000    38      447.0000      206.0000     1370   53.91%
Elapsed time = 2.55 sec. (420.19 ticks, tree = 0.02 MB, solutions = 6)
*     6     6      integral     0      358.0000      208.0000     1515   41.90%
*     8     6      integral     0      305.0000      208.0000     1523   31.80%
*   178   131      integral     0      264.0000      208.0000     5923   21.21%
*   256   138      integral     0      251.0000      208.0000     7049   17.13%
    315   156      208.0000    43      251.0000      208.0000     9632   17.13%
*   467   282      integral     0      240.0000      208.0000    13257   13.33%
*   468   242      integral     0      237.0000      208.0000    12397   12.24%
*   636   215      integral     0      225.0000      208.0000    15368    7.56%
    790   139      209.0000    52      225.0000      208.0000    18186    7.56%
   1270   586      209.3750    68      225.0000      208.0000    27604    7.56%
   1759  1072      210.9493    93      225.0000      208.0000    33700    7.56%
   2240  1345      214.4822   117      225.0000      209.0000    40962    7.11%

Performing restart 1

Repeating presolve.
Tried aggregator 1 time.
MIP Presolve eliminated 1735 rows and 1728 columns.
MIP Presolve modified 2360 coefficients.
Reduced MIP has 1317 rows, 1272 columns, and 5839 nonzeros.
Reduced MIP has 1222 binaries, 50 generals, 0 SOSs, and 0 indicators.
Presolve time = 0.01 sec. (4.66 ticks)
Represolve time = 0.03 sec. (21.01 ticks)

Root node processing (before b&c):
  Real time             =    2.54 sec. (418.70 ticks)
Parallel b&c, 4 threads:
  Real time             =    1.93 sec. (1340.92 ticks)
  Sync time (average)   =    0.00 sec.
  Wait time (average)   =    0.00 sec.
                          ------------
Total (root+branch&cut) =    4.46 sec. (1759.62 ticks)

Solution pool: 13 solutions saved.

MIP - Integer optimal solution:  Objective =  2.2500000000e+02
Solution time =    4.47 sec.  Iterations = 46476  Nodes = 2401 (1)
Deterministic time = 1759.63 ticks  (393.35 ticks/sec)

MILP problem relaxed to LP with fixed integer variables using
incumbent solution.
Version identifier: 22.1.1.0 | 2022-11-28 | 9160aff4d
Parallel mode: deterministic, using up to 4 threads for concurrent optimization:
 * Starting dual Simplex on 1 thread...
 * Starting Barrier on 3 threads...
Infeasibility row '_C1038':  0 >= 7.
Presolve time = 0.00 sec. (0.67 ticks)
Presolve - Infeasible.
Solution time =    0.01 sec.
Deterministic time = 96.17 ticks  (11831.51 ticks/sec)

CPLEX Error  1217: No solution exists.
No file written.

Log started (V22.1.1.0) Sat May 31 06:00:41 2025

Version identifier: 22.1.1.0 | 2022-11-28 | 9160aff4d
Tried aggregator 1 time.
MIP Presolve modified 1000 coefficients.
Reduced MIP has 3060 rows, 3000 columns, and 14250 nonzeros.
Reduced MIP has 2950 binaries, 50 generals, 0 SOSs, and 0 indicators.
Presolve time = 0.01 sec. (7.04 ticks)
Probing time = 0.01 sec. (3.77 ticks)
Cover probing fixed 0 vars, tightened 50 bounds.
Tried aggregator 1 time.
Detecting symmetries...
MIP Presolve eliminated 8 rows and 0 columns.
MIP Presolve modified 984 coefficients.
Reduced MIP has 3052 rows, 3000 columns, and 14234 nonzeros.
Reduced MIP has 2950 binaries, 50 generals, 0 SOSs, and 0 indicators.
Presolve time = 0.01 sec. (8.98 ticks)
Probing fixed 0 vars, tightened 37 bounds.
Probing time = 0.03 sec. (11.18 ticks)
Cover probing fixed 0 vars, tightened 19 bounds.
Clique table members: 1254.
MIP emphasis: balance optimality and feasibility.
MIP search method: dynamic search.
Parallel mode: deterministic, using up to 4 threads.
Root relaxation solution time = 0.07 sec. (12.73 ticks)

        Nodes                                         Cuts/
   Node  Left     Objective  IInf  Best Integer    Best Bound    ItCnt     Gap

      0     0      206.0000   105                    206.0000      217         
      0     0      206.0000    87                   Cuts: 412      430         
      0     0      206.0000    48                   Cuts: 584      642         
      0     0      206.0000    30                   Cuts: 467      833         
      0     0      206.0000    50                   Cuts: 483     1002         
*     0+    0                         4074.0000      206.0000            94.94%
      0     0      206.0000    37     4074.0000     Cuts: 424     1205   94.94%
Detecting symmetries...
      0     0      206.0000    38     4074.0000     Cuts: 437     1370   94.94%
*     0+    0                         2953.0000      206.0000            93.02%
*     0+    0                         2841.0000      206.0000            92.75%
*     0+    0                         2730.0000      206.0000            92.45%
*     0+    0                         2676.0000      206.0000            92.30%
      0     0  -1.00000e+75     0     2676.0000      206.0000     1370   92.30%
*     0+    0                          447.0000      206.0000            53.91%
Detecting symmetries...
      0     2      208.0000    38      447.0000      206.0000     1370   53.91%
Elapsed time = 0.81 sec. (420.19 ticks, tree = 0.02 MB, solutions = 6)
*     6     6      integral     0      358.0000      208.0000     1515   41.90%
*     8     6      integral     0      305.0000      208.0000     1523   31.80%
*   178   131      integral     0      264.0000      208.0000     5923   21.21%
*   256   138      integral     0      251.0000      208.0000     7049   17.13%
    315   156      208.0000    43      251.0000      208.0000     9632   17.13%
*   467   282      integral     0      240.0000      208.0000    13257   13.33%
*   468   242      integral     0      237.0000      208.0000    12397   12.24%
*   636   215      integral     0      225.0000      208.0000    15368    7.56%
    790   139      209.0000    52      225.0000      208.0000    18186    7.56%
   1270   586      209.3750    68      225.0000      208.0000    27604    7.56%
   1759  1072      210.9493    93      225.0000      208.0000    33700    7.56%
   2240  1345      214.4822   117      225.0000      209.0000    40962    7.11%

Performing restart 1

Repeating presolve.
Tried aggregator 1 time.
MIP Presolve eliminated 1735 rows and 1728 columns.
MIP Presolve modified 2360 coefficients.
Reduced MIP has 1317 rows, 1272 columns, and 5839 nonzeros.
Reduced MIP has 1222 binaries, 50 generals, 0 SOSs, and 0 indicators.
Presolve time = 0.01 sec. (4.66 ticks)
Represolve time = 0.04 sec. (21.01 ticks)

Root node processing (before b&c):
  Real time             =    0.81 sec. (418.70 ticks)
Parallel b&c, 4 threads:
  Real time             =    2.10 sec. (1340.92 ticks)
  Sync time (average)   =    0.00 sec.
  Wait time (average)   =    0.00 sec.
                          ------------
Total (root+branch&cut) =    2.90 sec. (1759.62 ticks)

Solution pool: 13 solutions saved.

MIP - Integer optimal solution:  Objective =  2.2500000000e+02
Solution time =    2.91 sec.  Iterations = 46476  Nodes = 2401 (1)
Deterministic time = 1759.63 ticks  (604.39 ticks/sec)

MILP problem relaxed to LP with fixed integer variables using
incumbent solution.
Version identifier: 22.1.1.0 | 2022-11-28 | 9160aff4d
Parallel mode: deterministic, using up to 4 threads for concurrent optimization:
 * Starting dual Simplex on 1 thread...
 * Starting Barrier on 3 threads...
Infeasibility row '_C1038':  0 >= 7.
Presolve time = 0.00 sec. (0.67 ticks)
Presolve - Infeasible.
Solution time =    0.01 sec.
Deterministic time = 96.17 ticks  (17104.78 ticks/sec)

CPLEX Error  1217: No solution exists.
No file written.
